p cnf 30 120
12 22 29 0
8 23 27 0
3 26 30 0
21 24 26 0
5 17 20 0
1 3 29 0
6 22 25 0
18 22 28 0
6 9 28 0
16 17 30 0
16 21 28 0
7 17 30 0
15 19 27 0
2 13 18 0
9 11 24 0
3 4 9 0
5 10 20 0
8 10 19 0
14 24 27 0
11 13 25 0
4 12 13 0
2 11 12 0
6 7 15 0
19 21 25 0
14 23 29 0
1 10 15 0
8 23 26 0
5 14 16 0
1 4 18 0
2 7 20 0
-12 -22 0
-12 -29 0
-22 -29 0
-8 -23 0
-8 -27 0
-23 -27 0
-3 -26 0
-3 -30 0
-26 -30 0
-21 -24 0
-21 -26 0
-24 -26 0
-5 -17 0
-5 -20 0
-17 -20 0
-1 -3 0
-1 -29 0
-3 -29 0
-6 -22 0
-6 -25 0
-22 -25 0
-18 -22 0
-18 -28 0
-22 -28 0
-6 -9 0
-6 -28 0
-9 -28 0
-16 -17 0
-16 -30 0
-17 -30 0
-16 -21 0
-16 -28 0
-21 -28 0
-7 -17 0
-7 -30 0
-17 -30 0
-15 -19 0
-15 -27 0
-19 -27 0
-2 -13 0
-2 -18 0
-13 -18 0
-9 -11 0
-9 -24 0
-11 -24 0
-3 -4 0
-3 -9 0
-4 -9 0
-5 -10 0
-5 -20 0
-10 -20 0
-8 -10 0
-8 -19 0
-10 -19 0
-14 -24 0
-14 -27 0
-24 -27 0
-11 -13 0
-11 -25 0
-13 -25 0
-4 -12 0
-4 -13 0
-12 -13 0
-2 -11 0
-2 -12 0
-11 -12 0
-6 -7 0
-6 -15 0
-7 -15 0
-19 -21 0
-19 -25 0
-21 -25 0
-14 -23 0
-14 -29 0
-23 -29 0
-1 -10 0
-1 -15 0
-10 -15 0
-8 -23 0
-8 -26 0
-23 -26 0
-5 -14 0
-5 -16 0
-14 -16 0
-1 -4 0
-1 -18 0
-4 -18 0
-2 -7 0
-2 -20 0
-7 -20 0
